15 45 2 28 69 14 80 62 7 47 54 4 42 73 48 85 96 17 19 35 71 57 55 16 64 56 31 61 53 99 92 37 44 43 49 82 26 88 40 51 72 38 22 8 30 98 67 59 52 79 63 36 60 1 97 78 6 34 89 95 41 68 32 5 77 25 9 94 90 33 86 10 58 3 66 39 74 24 46 93 27 0 76 70 11 21 83 91 13 65 23 18 50 20 87 84 29 75 81 12